50
    1    21    37
    2    26     3
    3    27    25
    4     5    22
    5    41    15
    6    32    19
    7    21     4
    8    33     7
    9    10    26
   10    32    17
   11    48     7
   12    36    18
   13    30     3
   14     9    17
   15    18    44
   16    49    14
   17    29     8
   18    47    43
   19    46    38
   20     1    15
   21    43    20
   22    32    45
   23    39     5
   24    23    32
   25    40    38
   26    30    21
   27    11    35
   28    37    15
   29    23    33
   30    12    16
   31    20     3
   32    45    29
   33    17    27
   34    50    48
   35     1     1
   36    42    10
   37    36    29
   38    48    14
   39     8    21
   40    41     6
   41    23    26
   42    15    45
   43    43    31
   44    44    43
   45     4    10
   46    48     6
   47    36    29
   48    30     5
   49    16    38
   50    17    33
730
